% demand
num_movements = 25;
loading_factor = [1450, 2000, 1350, 1400, 1600, 1200, 900, 1050, 1350, 1800, 1850, 1600, 900, 1350, 1250, 1750, 1750, 1700, 850, 1150, 1550, 1100, 950, 1300, 1850];
pickup_time = [0, 0, 0, 0, 2, 2, 3, 3, 3, 3, 3, 4, 6, 6, 6, 6, 6, 7, 8, 9, 9, 10, 10, 12, 12];
delivery_time = [3, 1, 3, 3, 3, 3, 4, 6, 5, 4, 4, 5, 7, 7, 13, 7, 7, 11, 11, 11, 10, 12, 14, 14, 14];

% transporter definition
total_capacity = 7000;
num_decks = 3;
capacity = [3000, 1000, 3000];

% ways out of decks
num_ways_out = 1;
paths_out = array3d(decks, ways_out, decks, [
% ways out of deck d1
2, 3, 0, 

% ways out of deck d2
3, 0, 0, 

% ways out of deck d3
0, 0, 0,	

]);

